14° run output:
{
    "Function": "ClusterB500.tsp",
    "Problem dimension": [
        339,
        217,
        245,
        35,
        358,
        18,
        422,
        12,
        67,
        170,
        180,
        428,
        306,
        239,
        178,
        212,
        137,
        37,
        89,
        472,
        53,
        50,
        173,
        183,
        73,
        146,
        51,
        440,
        494,
        447,
        126,
        19,
        118,
        130,
        313,
        319,
        470,
        5,
        192,
        468,
        292,
        61,
        153,
        369,
        482,
        228,
        316,
        479,
        49,
        109,
        226,
        279,
        233,
        21,
        76,
        203,
        102,
        24,
        402,
        298,
        255,
        39,
        275,
        264,
        205,
        273,
        323,
        222,
        187,
        331,
        208,
        278,
        256,
        47,
        179,
        150,
        328,
        452,
        38,
        432,
        231,
        269,
        309,
        347,
        433,
        288,
        77,
        299,
        271,
        387,
        375,
        260,
        69,
        163,
        493,
        401,
        352,
        108,
        455,
        443,
        322,
        74,
        326,
        466,
        198,
        329,
        430,
        181,
        385,
        188,
        370,
        464,
        136,
        142,
        105,
        438,
        332,
        155,
        92,
        499,
        257,
        30,
        111,
        336,
        395,
        185,
        248,
        491,
        85,
        496,
        362,
        290,
        121,
        214,
        41,
        382,
        31,
        11,
        277,
        175,
        99,
        75,
        303,
        367,
        444,
        216,
        34,
        446,
        350,
        235,
        197,
        148,
        293,
        59,
        166,
        407,
        272,
        412,
        60,
        398,
        141,
        237,
        449,
        311,
        305,
        276,
        219,
        259,
        262,
        94,
        453,
        72,
        416,
        113,
        379,
        295,
        465,
        81,
        265,
        463,
        107,
        418,
        390,
        27,
        341,
        353,
        103,
        26,
        371,
        267,
        90,
        343,
        450,
        484,
        70,
        211,
        403,
        182,
        498,
        366,
        389,
        361,
        115,
        88,
        45,
        238,
        220,
        65,
        281,
        377,
        368,
        123,
        462,
        308,
        227,
        334,
        242,
        80,
        327,
        152,
        485,
        363,
        232,
        22,
        236,
        210,
        209,
        439,
        286,
        490,
        374,
        420,
        243,
        7,
        492,
        355,
        296,
        158,
        62,
        56,
        128,
        97,
        448,
        57,
        171,
        84,
        270,
        399,
        143,
        172,
        66,
        459,
        266,
        184,
        425,
        294,
        44,
        58,
        79,
        13,
        55,
        68,
        17,
        189,
        6,
        408,
        441,
        169,
        320,
        489,
        206,
        342,
        458,
        436,
        414,
        380,
        177,
        54,
        289,
        229,
        359,
        8,
        64,
        86,
        337,
        304,
        101,
        139,
        333,
        174,
        25,
        140,
        378,
        437,
        42,
        151,
        300,
        285,
        104,
        312,
        133,
        481,
        127,
        157,
        1,
        241,
        460,
        324,
        190,
        365,
        223,
        78,
        218,
        487,
        364,
        357,
        318,
        36,
        191,
        348,
        2,
        415,
        282,
        411,
        419,
        160,
        110,
        149,
        9,
        475,
        396,
        314,
        254,
        338,
        406,
        315,
        48,
        400,
        431,
        225,
        301,
        28,
        434,
        373,
        4,
        268,
        201,
        253,
        230,
        471,
        283,
        376,
        32,
        46,
        486,
        421,
        129,
        360,
        164,
        394,
        52,
        330,
        461,
        345,
        20,
        297,
        249,
        280,
        161,
        495,
        100,
        372,
        122,
        397,
        426,
        478,
        351,
        10,
        193,
        116,
        473,
        383,
        199,
        204,
        405,
        321,
        138,
        445,
        291,
        344,
        33,
        117,
        112,
        317,
        43,
        457,
        427,
        135,
        156,
        467,
        134,
        325,
        14,
        474,
        244,
        167,
        91,
        29,
        251,
        221,
        147,
        87,
        497,
        409,
        356,
        423,
        15,
        224,
        346,
        483,
        162,
        287,
        124,
        40,
        96,
        114,
        284,
        0,
        480,
        424,
        159,
        340,
        165,
        154,
        168,
        435,
        144,
        469,
        335,
        93,
        417,
        413,
        132,
        83,
        477,
        240,
        384,
        131,
        429,
        82,
        274,
        302,
        451,
        454,
        381,
        63,
        16,
        196,
        213,
        258,
        195,
        207,
        194,
        186,
        349,
        393,
        145,
        202,
        119,
        488,
        234,
        307,
        246,
        456,
        98,
        247,
        392,
        250,
        310,
        252,
        106,
        391,
        476,
        71,
        386,
        200,
        388,
        215,
        125,
        3,
        261,
        23,
        442,
        410,
        404,
        354,
        120,
        176,
        263,
        95
    ],
    "Global Optimum": 0,
    "Algorithm": "Genetic algorithm",
    "Parameters": {
        "population": 30,
        "offspring": 30,
        "mutation probability": 0.002,
        "crossover probability": 0.9
    },
    "Fitness": 705374,
    "Solution": [
        339,
        217,
        245,
        35,
        358,
        18,
        422,
        12,
        67,
        170,
        180,
        428,
        306,
        239,
        178,
        212,
        137,
        37,
        89,
        472,
        53,
        50,
        173,
        183,
        73,
        146,
        51,
        440,
        494,
        447,
        126,
        19,
        118,
        130,
        313,
        319,
        470,
        5,
        192,
        468,
        292,
        61,
        153,
        369,
        482,
        228,
        316,
        479,
        49,
        109,
        226,
        279,
        233,
        21,
        76,
        203,
        102,
        24,
        402,
        298,
        255,
        39,
        275,
        264,
        205,
        273,
        323,
        222,
        187,
        331,
        208,
        278,
        256,
        47,
        179,
        150,
        328,
        452,
        38,
        432,
        231,
        269,
        309,
        347,
        433,
        288,
        77,
        299,
        271,
        387,
        375,
        260,
        69,
        163,
        493,
        401,
        352,
        108,
        455,
        443,
        322,
        74,
        326,
        466,
        198,
        329,
        430,
        181,
        385,
        188,
        370,
        464,
        136,
        142,
        105,
        438,
        332,
        155,
        92,
        499,
        257,
        30,
        111,
        336,
        395,
        185,
        248,
        491,
        85,
        496,
        362,
        290,
        121,
        214,
        41,
        382,
        31,
        11,
        277,
        175,
        99,
        75,
        303,
        367,
        444,
        216,
        34,
        446,
        350,
        235,
        197,
        148,
        293,
        59,
        166,
        407,
        272,
        412,
        60,
        398,
        141,
        237,
        449,
        311,
        305,
        276,
        219,
        259,
        262,
        94,
        453,
        72,
        416,
        113,
        379,
        295,
        465,
        81,
        265,
        463,
        107,
        418,
        390,
        27,
        341,
        353,
        103,
        26,
        371,
        267,
        90,
        343,
        450,
        484,
        70,
        211,
        403,
        182,
        498,
        366,
        389,
        361,
        115,
        88,
        45,
        238,
        220,
        65,
        281,
        377,
        368,
        123,
        462,
        308,
        227,
        334,
        242,
        80,
        327,
        152,
        485,
        363,
        232,
        22,
        236,
        210,
        209,
        439,
        286,
        490,
        374,
        420,
        243,
        7,
        492,
        355,
        296,
        158,
        62,
        56,
        128,
        97,
        448,
        57,
        171,
        84,
        270,
        399,
        143,
        172,
        66,
        459,
        266,
        184,
        425,
        294,
        44,
        58,
        79,
        13,
        55,
        68,
        17,
        189,
        6,
        408,
        441,
        169,
        320,
        489,
        206,
        342,
        458,
        436,
        414,
        380,
        177,
        54,
        289,
        229,
        359,
        8,
        64,
        86,
        337,
        304,
        101,
        139,
        333,
        174,
        25,
        140,
        378,
        437,
        42,
        151,
        300,
        285,
        104,
        312,
        133,
        481,
        127,
        157,
        1,
        241,
        460,
        324,
        190,
        365,
        223,
        78,
        218,
        487,
        364,
        357,
        318,
        36,
        191,
        348,
        2,
        415,
        282,
        411,
        419,
        160,
        110,
        149,
        9,
        475,
        396,
        314,
        254,
        338,
        406,
        315,
        48,
        400,
        431,
        225,
        301,
        28,
        434,
        373,
        4,
        268,
        201,
        253,
        230,
        471,
        283,
        376,
        32,
        46,
        486,
        421,
        129,
        360,
        164,
        394,
        52,
        330,
        461,
        345,
        20,
        297,
        249,
        280,
        161,
        495,
        100,
        372,
        122,
        397,
        426,
        478,
        351,
        10,
        193,
        116,
        473,
        383,
        199,
        204,
        405,
        321,
        138,
        445,
        291,
        344,
        33,
        117,
        112,
        317,
        43,
        457,
        427,
        135,
        156,
        467,
        134,
        325,
        14,
        474,
        244,
        167,
        91,
        29,
        251,
        221,
        147,
        87,
        497,
        409,
        356,
        423,
        15,
        224,
        346,
        483,
        162,
        287,
        124,
        40,
        96,
        114,
        284,
        0,
        480,
        424,
        159,
        340,
        165,
        154,
        168,
        435,
        144,
        469,
        335,
        93,
        417,
        413,
        132,
        83,
        477,
        240,
        384,
        131,
        429,
        82,
        274,
        302,
        451,
        454,
        381,
        63,
        16,
        196,
        213,
        258,
        195,
        207,
        194,
        186,
        349,
        393,
        145,
        202,
        119,
        488,
        234,
        307,
        246,
        456,
        98,
        247,
        392,
        250,
        310,
        252,
        106,
        391,
        476,
        71,
        386,
        200,
        388,
        215,
        125,
        3,
        261,
        23,
        442,
        410,
        404,
        354,
        120,
        176,
        263,
        95
    ],
    "Nb of functions evaluations": 50010,
    "Computational time in seconds": 363.09968662261963,
    "Stopping criterion in evaluations": 50000
}